Version identifier: 22.1.0.0 | 2022-03-09 | 1a383f8ce
CPXPARAM_Threads                                 1
CPXPARAM_MIP_Strategy_VariableSelect             3
CPXPARAM_TimeLimit                               599.99998612700006
1 of 1 MIP starts provided solutions.
MIP start 'm1' defined initial solution with objective 1.0000.
Tried aggregator 1 time.
MIP Presolve eliminated 12 rows and 0 columns.
MIP Presolve modified 1 coefficients.
Reduced MIP has 1212 rows, 5000 columns, and 61468 nonzeros.
Reduced MIP has 5000 binaries, 0 generals, 0 SOSs, and 0 indicators.
Presolve time = 0.04 sec. (30.77 ticks)
Probing time = 0.00 sec. (5.86 ticks)
Tried aggregator 1 time.
Detecting symmetries...
Reduced MIP has 1212 rows, 5000 columns, and 61468 nonzeros.
Reduced MIP has 5000 binaries, 0 generals, 0 SOSs, and 0 indicators.
Presolve time = 0.04 sec. (36.08 ticks)
Probing time = 0.00 sec. (5.86 ticks)
Clique table members: 600.
MIP emphasis: balance optimality and feasibility.
MIP search method: dynamic search.
Parallel mode: none, using 1 thread.
Root relaxation solution time = 0.40 sec. (425.65 ticks)

        Nodes                                         Cuts/
   Node  Left     Objective  IInf  Best Integer    Best Bound    ItCnt     Gap

*     0+    0                            1.0000     5000.0000              --- 
      0     0      200.0000   697        1.0000      200.0000     2669     --- 
*     0+    0                          200.0000      200.0000             0.00%
      0     0        cutoff            200.0000      200.0000     2669    0.00%
Elapsed time = 2.88 sec. (3276.47 ticks, tree = 0.01 MB, solutions = 2)

Root node processing (before b&c):
  Real time             =    2.88 sec. (3276.66 ticks)
Sequential b&c:
  Real time             =    0.00 sec. (0.00 ticks)
                          ------------
Total (root+branch&cut) =    2.88 sec. (3276.66 ticks)
13
7
16
10
18
2
10
18
1
10
2
7
18
5
7
9
3
18
7
3
20
18
3
18
7
17
1
7
10
14
18
10
0
7
21
1
7
22
16
7
10
14
9
21
14
7
12
14
7
21
1
8
10
14
7
21
16
8
10
1
18
21
15
7
12
14
7
24
14
7
12
14
9
10
14
18
12
14
19
12
14
18
10
1
19
23
14
7
23
0
7
10
14
7
13
14
7
12
14
7
21
15
7
21
16
7
10
15
18
12
16
7
11
14
7
12
16
19
7
3
7
18
6
7
7
5
18
7
2
21
7
16
21
19
16
10
7
1
8
21
14
18
12
15
7
21
1
7
7
4
18
18
3
7
20
5
18
18
3
8
7
5
7
18
5
18
9
3
18
18
3
9
7
5
18
18
2
21
18
16
21
20
14
7
12
14
19
10
14
18
23
14
8
10
1
7
10
14
20
23
Primal:	200
Dual:	200
Status:	Optimal
Time:	2.9
